interdiction/MCDM/NO_CORR/GEN_FROM_60/17_ITEMS_1000_GEN/K5017W01.KNP.mps
NAME          BLANK   
ROWS
 N  OBJROW
 L  R0000000
COLUMNS
    C0000000  OBJROW     -865.         R0000000  82.         
    C0000001  OBJROW     -495.         R0000000  323.        
    C0000002  OBJROW     -849.         R0000000  389.        
    C0000003  OBJROW     -114.         R0000000  541.        
    C0000004  OBJROW     -441.         R0000000  341.        
    C0000005  OBJROW     -217.         R0000000  70.         
    C0000006  OBJROW     -913.         R0000000  162.        
    C0000007  OBJROW     -128.         R0000000  49.         
    C0000008  OBJROW     -8.           R0000000  291.        
    C0000009  OBJROW     -38.          R0000000  257.        
    C0000010  OBJROW     -740.         R0000000  602.        
    C0000011  OBJROW     -543.         R0000000  423.        
    C0000012  OBJROW     -692.         R0000000  620.        
    C0000013  OBJROW     -258.         R0000000  725.        
    C0000014  OBJROW     -414.         R0000000  589.        
    C0000015  OBJROW     -764.         R0000000  782.        
    C0000016  OBJROW     -278.         R0000000  133.        
RHS
    RHS       R0000000  14156.      
BOUNDS
 BV BOUND     C0000000  1.          
 BV BOUND     C0000001  1.          
 BV BOUND     C0000002  1.          
 BV BOUND     C0000003  1.          
 BV BOUND     C0000004  1.          
 BV BOUND     C0000005  1.          
 BV BOUND     C0000006  1.          
 BV BOUND     C0000007  1.          
 BV BOUND     C0000008  1.          
 BV BOUND     C0000009  1.          
 BV BOUND     C0000010  1.          
 BV BOUND     C0000011  1.          
 BV BOUND     C0000012  1.          
 BV BOUND     C0000013  1.          
 BV BOUND     C0000014  1.          
 BV BOUND     C0000015  1.          
 BV BOUND     C0000016  1.          
ENDATA
