data/MCDM/NO_CORR/GEN_FROM_60/17_ITEMS_1000_GEN/K5017W01.KNP.txt
N 17
M 18
LC 17
LC 18
LC 19
LC 20
LC 21
LC 22
LC 23
LC 24
LC 25
LC 26
LC 27
LC 28
LC 29
LC 30
LC 31
LC 32
LC 33
LR 1
LR 2
LR 3
LR 4
LR 5
LR 6
LR 7
LR 8
LR 9
LR 10
LR 11
LR 12
LR 13
LR 14
LR 15
LR 16
LR 17
LR 18
LO -865
LO -495
LO -849
LO -114
LO -441
LO -217
LO -913
LO -128
LO -8
LO -38
LO -740
LO -543
LO -692
LO -258
LO -414
LO -764
LO -278
OS 1
IC 14
IC 802
IC 442
IC 578
IC 88
IC 244
IC 606
IC 189
IC 947
IC 521
IC 177
IC 523
IC 199
IC 31
IC 502
IC 662
IC 803
IB 3664
